\ENCODING=ISO-8859-1
\Problem name: subtour

Minimize
 obj: x1 + x2 + 2 x3 + 4 x4 + 3 x5 + 2 x6 + 3 x7 + 5 x8 + 8 x9 + 4 x10 + 2 x11
      + 6 x12 + 6 x13 + 2 x14 + 4 x15 + 2 x16 + 4 x17 + 4 x18 + 5 x19 + 5 x20
      + 4 x21 + x22
Subject To
 c1:  x1 + x2 + x3 + x4 + x5  = 2
 c2:  x3 + x6 + x7 + x8  = 2
 c3:  x9 + x10 + x11 + x12  = 2
 c4:  x11 + x13 + x14  = 2
 c5:  x5 + x7 + x15 + x16  = 2
 c6:  x9 + x13 + x17 + x18 + x19  = 2
 c7:  x8 + x12 + x16 + x20  = 2
 c8:  x4 + x10 + x14 + x15 + x19 + x20 + x21  = 2
 c9:  x2 + x6 + x17 + x22  = 2
 c10: x1 + x18 + x21 + x22  = 2
Bounds
 0 <= x1 <= 1
 0 <= x2 <= 1
 0 <= x3 <= 1
 0 <= x4 <= 1
 0 <= x5 <= 1
 0 <= x6 <= 1
 0 <= x7 <= 1
 0 <= x8 <= 1
 0 <= x9 <= 1
 0 <= x10 <= 1
 0 <= x11 <= 1
 0 <= x12 <= 1
 0 <= x13 <= 1
 0 <= x14 <= 1
 0 <= x15 <= 1
 0 <= x16 <= 1
 0 <= x17 <= 1
 0 <= x18 <= 1
 0 <= x19 <= 1
 0 <= x20 <= 1
 0 <= x21 <= 1
 0 <= x22 <= 1
End
